10 7 3.02 1 1 2 8 8193 4097
1 3 2 2 1 2 3
1 100
1 27
1 370
2 1240
1 1 0 500
2 1 0 570
3 2 0 540
4 2 0 530
5 2 0 590
6 2 0 500
7 2 0 540
8 2 0 520
0 2 1 190 2 180 12 1 2 5 15 1 2 1 20 1 1 1 2 5 10 1 1 4 14 1 1 1 4 5 9 1 2 2 20 1 4 4 12 1 5 3 11 1 4 1 4 5 12 1 2 1 15 1 1 2 14 1 1 6 15 1 4 1 2 1 20 1 2 5 14 1 2 1 4 5 5 1 3 4 7 1 1 3 15 1 3 2 10 1 3 1 3 5 7 1 3 3 5 1 1 1 20 1 2 1 4 2 18 1 5 1 15 1 2 3 14 1 5 4 18 1 4 1 4 3 15 1 2 5 12 1 1 6 16 1 4 7 14 1 3 1 4 3 6 1 1 4 20 1 3 1 8 1 5 2 10 1 5 1 3 3 8 1 1 4 11 1 1 5 6 1 3 1 4 4 6 1 4 1 7 1 3 3 9 1 1 2 13 1 3 
0 2 1 130 2 200 12 1 2 4 17 1 5 2 16 1 3 1 3 5 16 1 2 3 8 1 5 2 11 1 2 1 3 5 6 1 5 3 13 1 1 6 17 1 5 1 4 4 18 1 2 2 12 1 2 3 6 1 4 5 14 1 5 1 4 3 10 1 3 4 13 1 4 2 20 1 2 5 7 1 5 1 3 5 16 1 3 4 18 1 4 3 10 1 5 1 3 3 19 1 5 5 12 1 4 4 17 1 3 1 4 4 15 1 3 2 15 1 4 5 11 1 4 3 13 1 3 1 2 3 7 1 3 4 20 1 2 1 2 2 12 1 5 1 13 1 3 1 2 4 13 1 1 6 10 1 1 1 3 1 7 1 4 4 7 1 2 2 18 1 1 
0 2 1 180 2 190 12 1 3 1 18 1 2 2 9 1 5 5 5 1 5 1 4 5 15 1 5 4 17 1 5 1 16 1 5 3 20 1 1 1 2 4 20 1 4 3 12 1 5 1 4 3 16 1 4 4 16 1 2 5 10 1 1 1 5 1 5 1 4 4 17 1 4 5 11 1 5 3 19 1 2 6 12 1 2 1 3 4 14 1 4 5 20 1 5 6 20 1 1 1 2 1 5 1 2 2 9 1 3 1 4 4 15 1 3 3 14 1 5 2 11 1 3 5 12 1 4 1 2 5 7 1 1 6 12 1 5 1 3 2 13 1 2 4 12 1 3 1 9 1 5 1 3 1 5 1 1 4 13 1 3 3 20 1 2 1 2 5 15 1 3 4 15 1 3 
2 1 150 2 160 6 3 160 4 130 5 190 6 60 7 110 8 100 9 1 4 4 7 1 4 3 18 1 3 2 13 1 3 5 16 1 3 1 3 1 19 1 1 5 6 1 4 2 8 1 1 1 3 5 16 1 1 6 11 1 5 7 11 1 5 1 4 4 9 1 2 5 8 1 3 3 17 1 4 1 7 1 1 1 3 4 18 1 4 3 17 1 1 2 10 1 3 1 4 4 11 1 5 3 13 1 1 1 13 1 2 2 8 1 1 1 2 4 20 1 3 5 7 1 5 1 2 2 14 1 3 1 14 1 1 1 3 2 20 1 3 5 12 1 2 6 14 1 2 
2 1 50 2 140 6 3 120 4 80 5 120 6 170 7 150 8 130 11 1 2 1 20 1 4 5 19 1 1 1 2 1 8 1 3 2 14 1 5 1 2 5 18 1 3 4 10 1 4 1 4 2 18 1 5 3 20 1 5 1 12 1 4 5 7 1 5 1 3 5 19 1 1 2 15 1 3 3 9 1 1 1 4 4 15 1 5 1 10 1 3 3 5 1 1 2 6 1 3 1 2 4 9 1 2 5 7 1 3 1 4 4 12 1 2 1 9 1 2 5 17 1 5 2 6 1 3 1 4 4 8 1 3 1 15 1 5 5 19 1 5 6 16 1 3 1 2 2 8 1 1 4 8 1 1 1 2 4 19 1 2 5 10 1 3 
2 1 110 2 140 6 3 60 4 190 5 150 6 190 7 140 8 100 11 1 2 1 7 1 4 2 14 1 5 1 2 1 16 1 2 2 17 1 5 1 3 4 16 1 5 5 20 1 3 6 5 1 5 1 4 5 10 1 1 6 8 1 2 3 15 1 4 2 6 1 2 1 4 1 6 1 2 4 14 1 3 2 17 1 4 3 9 1 4 1 2 5 14 1 2 2 10 1 4 1 4 4 14 1 2 3 18 1 4 2 7 1 4 1 5 1 5 1 4 4 18 1 1 3 5 1 1 1 13 1 3 5 5 1 2 1 4 2 8 1 2 3 18 1 1 4 15 1 4 1 7 1 5 1 3 1 19 1 3 4 15 1 4 2 12 1 2 1 2 5 9 1 3 4 6 1 5 
2 1 190 2 130 6 3 200 4 130 5 130 6 80 7 140 8 190 9 1 3 4 18 1 3 3 15 1 2 2 8 1 1 1 2 6 10 1 3 5 17 1 5 1 3 5 13 1 2 2 14 1 1 6 7 1 3 1 2 5 13 1 2 6 13 1 4 1 4 5 15 1 1 4 16 1 4 6 8 1 4 7 15 1 4 1 2 1 16 1 4 4 8 1 2 1 4 2 16 1 5 1 20 1 2 3 16 1 4 4 10 1 3 1 4 2 20 1 4 5 15 1 3 4 6 1 4 6 14 1 5 1 4 1 16 1 5 4 12 1 2 2 13 1 4 3 17 1 2 
6 3 130 4 110 5 180 6 130 7 220 8 130 0 9 1 3 5 15 1 2 4 18 1 5 3 16 1 4 1 2 2 19 1 3 3 13 1 4 1 4 4 7 1 5 3 20 1 1 2 5 1 4 1 12 1 3 1 3 4 5 1 1 2 20 1 1 1 9 1 2 1 2 4 19 1 5 3 20 1 1 1 2 1 9 1 2 5 18 1 4 1 4 1 18 1 4 5 16 1 3 6 19 1 1 3 11 1 3 1 3 3 15 1 1 5 10 1 1 1 11 1 4 1 4 2 20 1 2 3 7 1 3 4 13 1 3 5 7 1 1 
6 3 230 4 200 5 180 6 200 7 100 8 170 0 8 1 3 4 5 1 3 5 10 1 3 6 9 1 2 1 3 4 13 1 3 3 8 1 3 2 6 1 2 1 2 5 9 1 4 1 5 1 1 1 4 2 15 1 3 5 18 1 4 6 14 1 1 7 13 1 5 1 2 1 8 1 1 4 20 1 4 1 3 2 15 1 4 5 7 1 1 4 20 1 3 1 3 5 12 1 5 4 20 1 1 3 5 1 3 1 2 1 8 1 3 4 6 1 4 
6 3 180 4 220 5 230 6 170 7 220 8 220 0 12 1 4 2 19 1 2 4 20 1 3 5 7 1 5 6 20 1 5 1 3 4 14 1 5 3 13 1 2 5 18 1 1 1 4 2 7 1 4 1 17 1 5 4 9 1 2 3 16 1 2 1 2 4 7 1 5 3 14 1 2 1 4 1 14 1 1 5 7 1 5 2 15 1 5 3 11 1 2 1 3 5 7 1 2 4 18 1 1 6 18 1 1 1 2 4 10 1 3 3 9 1 2 1 3 2 17 1 2 4 19 1 1 5 7 1 3 1 2 2 6 1 3 4 13 1 2 1 3 3 10 1 2 2 9 1 1 5 5 1 3 1 4 2 19 1 2 1 5 1 5 5 20 1 4 6 15 1 1 1 2 4 6 1 5 3 5 1 5 
